Maximize

29.5 b0 + 33.0 b1 + 41.0 b2 + 10 b3 + 38.0 b4 + 41.0 b5 + 10 b6 + 53.5 b7 + 20.5 b8 + 51.5 b9.v0 + 53.5 b9.v1 + 33.0 b10 + 36.0 b11.v0 + 36.0 b11.v1 + 18.5 b12 + 6 b13 + 18.5 b14 + 10 b15 + 66.0 b16 + 6 b17.v0 + 6 b17.v1 + 171.0 b18 + 45.0 b19 + 143.0 b20.v0 + 143.0 b20.v1 + 31 b21 + 12 b22.v0 + 10 b22.v1 + 28.5 b23 + 36.0 b24.v0 + 36.0 b24.v1 + 7 b25.v0 + 7 b25.v1 + 166.0 b26 + 45.0 b27 + 249.0 b28.v0 + 249.0 b28.v1 + 38.0 b29 + 73.5 b30.v0 + 71.5 b30.v1 + 31 b31 + 12 b32.v0 + 10 b32.v1 + 28.5 b33 + 274.5 b34.v0 + 274.5 b34.v1 + 22.5 b35 + 44.0 b36 + 18.5 b37 + 267.0 b38 + 10 b39 + 18.5 b40.v0 + 18.5 b40.v1 + 10 b41 + 33.0 b42 + 29.0 b43 + 12.5 x18_0.m + 12.5 x18_1.m + 12.5 x18_2.m + 12.5 x18_3.m + 12.5 x18_4.m + 12.5 x18_5.m + 12.5 x18_6.m + 12.5 x19_0.m + 12.5 x20_0.m + 12.5 x20_1.m + 12.5 x20_2.m + 12.5 x20_3.m + 12.5 x21_0.m + 12.5 x21_1.m + 12.5 x22_0.m + 12.5 x23_0.m + 12.5 x26_0.m + 12.5 x26_1.m + 12.5 x26_2.m + 12.5 x26_3.m + 12.5 x26_4.m + 12.5 x26_5.m + 12.5 x26_6.m + 12.5 x27_0.m + 12.5 x28_0.m + 12.5 x28_1.m + 12.5 x28_2.m + 12.5 x28_3.m + 12.5 x28_4.m + 12.5 x30_0.m + 12.5 x30_1.m + 12.5 x31_0.m + 12.5 x31_1.m + 12.5 x32_0.m + 12.5 x33_0.m + 12.5 dr17_0.m + 12.5 dr18_0.m + 12.5 dr18_1.m + 12.5 dr18_2.m + 12.5 dr18_3.m + 12.5 dr18_4.m + 12.5 dr18_5.m + 12.5 dr18_6.m + 12.5 dr18_7.m + 12.5 dr18_8.m + 12.5 dr18_9.m + 12.5 dr18_10.m + 12.5 dr18_11.m + 12.5 dr18_12.m + 12.5 dr18_13.m + 12.5 dr18_14.m + 12.5 dr18_15.m + 12.5 dr18_16.m + 12.5 dr18_17.m + 12.5 dr18_18.m + 12.5 dr18_19.m + 12.5 dr18_20.m + 12.5 dr19_0.m + 12.5 dr19_1.m + 12.5 dr20_0.m + 12.5 dr20_1.m + 12.5 dr20_2.m + 12.5 dr20_3.m + 12.5 dr20_4.m + 12.5 dr20_5.m + 12.5 dr20_6.m + 12.5 dr20_7.m + 12.5 dr20_8.m + 12.5 dr21_0.m + 12.5 dr21_1.m + 12.5 dr21_2.m + 12.5 dr21_3.m + 12.5 dr21_4.m + 12.5 dr21_5.m + 12.5 dr21_6.m + 12.5 dr22_0.m + 12.5 dr23_0.m + 12.5 dr25_0.m + 12.5 dr26_0.m + 12.5 dr26_1.m + 12.5 dr26_2.m + 12.5 dr26_3.m + 12.5 dr26_4.m + 12.5 dr26_5.m + 12.5 dr26_6.m + 12.5 dr26_7.m + 12.5 dr26_8.m + 12.5 dr26_9.m + 12.5 dr26_10.m + 12.5 dr26_11.m + 12.5 dr26_12.m + 12.5 dr26_13.m + 12.5 dr26_14.m + 12.5 dr26_15.m + 12.5 dr26_16.m + 12.5 dr26_17.m + 12.5 dr26_18.m + 12.5 dr26_19.m + 12.5 dr27_0.m + 12.5 dr27_1.m + 12.5 dr28_0.m + 12.5 dr28_1.m + 12.5 dr28_2.m + 12.5 dr28_3.m + 12.5 dr28_4.m + 12.5 dr28_5.m + 12.5 dr28_6.m + 12.5 dr28_7.m + 12.5 dr28_8.m + 12.5 dr28_9.m + 12.5 dr29_0.m + 12.5 dr30_0.m + 12.5 dr30_1.m + 12.5 dr30_2.m + 12.5 dr31_0.m + 12.5 dr31_1.m + 12.5 dr31_2.m + 12.5 dr31_3.m + 12.5 dr31_4.m + 12.5 dr31_5.m + 12.5 dr31_6.m + 12.5 dr32_0.m + 12.5 dr33_0.m


Subject to

\ === tcfg constraints ===
dSta_0 = 1
b0 - dSta_0 = 0
b0 - d0_1 = 0
b1 - d0_1 = 0
b1 - d1_4 - d1_2 = 0
b2 - d1_2 = 0
b2 - d2_3 = 0
b3 - d2_3 = 0
b4 - d1_4 = 0
b4 - d4_7 - d4_5 = 0
b5 - d4_5 = 0
b5 - d5_6 = 0
b6 - d5_6 = 0
b7 - d4_7 = 0
b7 - d7_43 - d7_8 = 0
b8 - d7_8 = 0
b8 - d8_9 = 0
b9 - d43_9 - d8_9 = 0
b9 - d9_42 - d9_10 = 0
b10 - d9_10 = 0
b10 - d10_11 = 0
b11 - d42_11 - d10_11 = 0
b11 - d11_36 - d11_12 = 0
b12 - d11_12 = 0
b12 - d12_16 - d12_13 = 0
b13 - d12_13 = 0
b13 - d13_14 = 0
b14 - d13_14 = 0
b14 - d14_15 = 0
b15 - d14_15 = 0
b16 - d12_16 = 0
b16 - d16_24 - d16_17 = 0
b17 - d16_17 - d23_17 = 0
b17 - d17_18 = 0
b18 - d17_18 = 0
b18 - d18_20 - d18_19 = 0
b19 - d18_19 = 0
b19 - d19_20 = 0
b20 - d18_20 - d19_20 = 0
b20 - d20_22 - d20_21 = 0
b21 - d20_21 = 0
b21 - d21_22 = 0
b22 - d20_22 - d21_22 = 0
b22 - d22_23 = 0
b23 - d22_23 = 0
b23 - d23_17 - d23_24 = 0
b24 - d16_24 - d23_24 = 0
b24 - d24_34 - d24_25 = 0
b25 - d24_25 - d33_25 = 0
b25 - d25_26 = 0
b26 - d25_26 = 0
b26 - d26_28 - d26_27 = 0
b27 - d26_27 = 0
b27 - d27_28 = 0
b28 - d26_28 - d27_28 = 0
b28 - d28_30 - d28_29 = 0
b29 - d28_29 = 0
b29 - d29_30 = 0
b30 - d28_30 - d29_30 = 0
b30 - d30_32 - d30_31 = 0
b31 - d30_31 = 0
b31 - d31_32 = 0
b32 - d30_32 - d31_32 = 0
b32 - d32_33 = 0
b33 - d32_33 = 0
b33 - d33_25 - d33_34 = 0
b34 - d24_34 - d33_34 = 0
b34 - d34_35 = 0
b35 - d34_35 = 0
b36 - d11_36 = 0
b36 - d36_40 - d36_37 = 0
b37 - d36_37 = 0
b37 - d37_40 - d37_38 = 0
b38 - d37_38 = 0
b38 - d38_39 = 0
b39 - d38_39 = 0
b40 - d36_40 - d37_40 = 0
b40 - d40_41 = 0
b41 - d40_41 = 0
b42 - d9_42 = 0
b42 - d42_11 = 0
b43 - d7_43 = 0
b43 - d43_9 = 0


\ === header constraints ===
b17 - 64 d16_17 <= 0
b25 - 64 d24_25 <= 0


\ === context constraints ===
b9 - b9.v0 - b9.v1 = 0
b9.v0 - d43_9 = 0
b9.v1 - d8_9 = 0
b11 - b11.v0 - b11.v1 = 0
b11.v0 - d42_11 = 0
b11.v1 - d10_11 = 0
b17 - b17.v0 - b17.v1 = 0
b17.v0 - d16_17 = 0
b17.v1 - d23_17 = 0
b20 - b20.v0 - b20.v1 = 0
b20.v0 - d18_20 = 0
b20.v1 - d19_20 = 0
b22 - b22.v0 - b22.v1 = 0
b22.v0 - d20_22 = 0
b22.v1 - d21_22 = 0
b24 - b24.v0 - b24.v1 = 0
b24.v0 - d16_24 = 0
b24.v1 - d23_24 = 0
b25 - b25.v0 - b25.v1 = 0
b25.v0 - d24_25 = 0
b25.v1 - d33_25 = 0
b28 - b28.v0 - b28.v1 = 0
b28.v0 - d26_28 = 0
b28.v1 - d27_28 = 0
b30 - b30.v0 - b30.v1 = 0
b30.v0 - d28_30 = 0
b30.v1 - d29_30 = 0
b32 - b32.v0 - b32.v1 = 0
b32.v0 - d30_32 = 0
b32.v1 - d31_32 = 0
b34 - b34.v0 - b34.v1 = 0
b34.v0 - d24_34 = 0
b34.v1 - d33_34 = 0
b40 - b40.v0 - b40.v1 = 0
b40.v0 - d36_40 = 0
b40.v1 - d37_40 = 0


\ === inst cache constraints ===
b18 - x18_0.h - x18_0.m = 0
x18_0.m <= 1
b18 - x18_1.h - x18_1.m = 0
x18_1.m <= 1
b18 - x18_2.h - x18_2.m = 0
x18_2.m <= 1
b18 - x18_3.h - x18_3.m = 0
x18_3.m <= 1
b18 - x18_4.h - x18_4.m = 0
x18_4.m <= 1
b18 - x18_5.h - x18_5.m = 0
x18_5.m <= 1
b18 - x18_6.h - x18_6.m = 0
x18_6.m <= 1
b19 - x19_0.h - x19_0.m = 0
x19_0.m <= 1
b20 - x20_0.h - x20_0.m = 0
x20_0.m <= 1
b20 - x20_1.h - x20_1.m = 0
x20_1.m <= 1
b20 - x20_2.h - x20_2.m = 0
x20_2.m <= 1
b20 - x20_3.h - x20_3.m = 0
x20_3.m <= 1
b21 - x21_0.h - x21_0.m = 0
x21_0.m <= 1
b21 - x21_1.h - x21_1.m = 0
x21_1.m <= 1
b22 - x22_0.h - x22_0.m = 0
x22_0.m <= 1
b23 - x23_0.h - x23_0.m = 0
x23_0.m <= 1
b26 - x26_0.h - x26_0.m = 0
x26_0.m <= 1
b26 - x26_1.h - x26_1.m = 0
x26_1.m <= 1
b26 - x26_2.h - x26_2.m = 0
x26_2.m <= 1
b26 - x26_3.h - x26_3.m = 0
x26_3.m <= 1
b26 - x26_4.h - x26_4.m = 0
x26_4.m <= 1
b26 - x26_5.h - x26_5.m = 0
x26_5.m <= 1
b26 - x26_6.h - x26_6.m = 0
x26_6.m <= 1
b27 - x27_0.h - x27_0.m = 0
x27_0.m <= 1
b28 - x28_0.h - x28_0.m = 0
x28_0.m <= 1
b28 - x28_1.h - x28_1.m = 0
x28_1.m <= 1
b28 - x28_2.h - x28_2.m = 0
x28_2.m <= 1
b28 - x28_3.h - x28_3.m = 0
x28_3.m <= 1
b28 - x28_4.h - x28_4.m = 0
x28_4.m <= 1
b30 - x30_0.h - x30_0.m = 0
x30_0.m <= 1
b30 - x30_1.h - x30_1.m = 0
x30_1.m <= 1
b31 - x31_0.h - x31_0.m = 0
x31_0.m <= 1
b31 - x31_1.h - x31_1.m = 0
x31_1.m <= 1
b32 - x32_0.h - x32_0.m = 0
x32_0.m <= 1
b33 - x33_0.h - x33_0.m = 0
x33_0.m <= 1


\ === data cache constraints ===
b17 - dr17_0.h - dr17_0.m = 0
dr17_0.m <= 1
b18 - dr18_0.h - dr18_0.m = 0
dr18_0.m <= 1
b18 - dr18_1.h - dr18_1.m = 0
dr18_1.m <= 1
b18 - dr18_2.h - dr18_2.m = 0
dr18_2.m <= 1
b18 - dr18_3.h - dr18_3.m = 0
dr18_3.m <= 1
b18 - dr18_4.h - dr18_4.m = 0
dr18_4.m <= 1
b18 - dr18_5.h - dr18_5.m = 0
dr18_5.m <= 1
b18 - dr18_6.h - dr18_6.m = 0
dr18_6.m <= 1
b18 - dr18_7.h - dr18_7.m = 0
dr18_7.m <= 1
b18 - dr18_8.h - dr18_8.m = 0
dr18_8.m <= 1
b18 - dr18_9.h - dr18_9.m = 0
dr18_9.m <= 1
b18 - dr18_10.h - dr18_10.m = 0
dr18_10.m <= 1
b18 - dr18_11.h - dr18_11.m = 0
dr18_11.m <= 1
b18 - dr18_12.h - dr18_12.m = 0
dr18_12.m <= 1
b18 - dr18_13.h - dr18_13.m = 0
dr18_13.m <= 1
b18 - dr18_14.h - dr18_14.m = 0
dr18_14.m <= 1
b18 - dr18_15.h - dr18_15.m = 0
dr18_15.m <= 1
b18 - dr18_16.h - dr18_16.m = 0
dr18_16.m <= 1
b18 - dr18_17.h - dr18_17.m = 0
dr18_17.m <= 1
b18 - dr18_18.h - dr18_18.m = 0
dr18_18.m <= 1
b18 - dr18_19.h - dr18_19.m = 0
dr18_19.m <= 1
b18 - dr18_20.h - dr18_20.m = 0
dr18_20.m <= 1
b19 - dr19_0.h - dr19_0.m = 0
dr19_0.m <= 1
b19 - dr19_1.h - dr19_1.m = 0
dr19_1.m <= 1
b20 - dr20_0.h - dr20_0.m = 0
dr20_0.m <= 1
b20 - dr20_1.h - dr20_1.m = 0
dr20_1.m <= 1
b20 - dr20_2.h - dr20_2.m = 0
dr20_2.m <= 1
b20 - dr20_3.h - dr20_3.m = 0
dr20_3.m <= 1
b20 - dr20_4.h - dr20_4.m = 0
dr20_4.m <= 1
b20 - dr20_5.h - dr20_5.m = 0
dr20_5.m <= 1
b20 - dr20_6.h - dr20_6.m = 0
dr20_6.m <= 1
b20 - dr20_7.h - dr20_7.m = 0
dr20_7.m <= 1
b20 - dr20_8.h - dr20_8.m = 0
dr20_8.m <= 1
b21 - dr21_0.h - dr21_0.m = 0
dr21_0.m <= 1
b21 - dr21_1.h - dr21_1.m = 0
dr21_1.m <= 1
b21 - dr21_2.h - dr21_2.m = 0
dr21_2.m <= 1
b21 - dr21_3.h - dr21_3.m = 0
dr21_3.m <= 1
b21 - dr21_4.h - dr21_4.m = 0
dr21_4.m <= 1
b21 - dr21_5.h - dr21_5.m = 0
dr21_5.m <= 1
b21 - dr21_6.h - dr21_6.m = 0
dr21_6.m <= 1
b22 - dr22_0.h - dr22_0.m = 0
dr22_0.m <= 1
b23 - dr23_0.h - dr23_0.m = 0
dr23_0.m <= 1
b25 - dr25_0.h - dr25_0.m = 0
dr25_0.m <= 1
b26 - dr26_0.h - dr26_0.m = 0
dr26_0.m <= 1
b26 - dr26_1.h - dr26_1.m = 0
dr26_1.m <= 1
b26 - dr26_2.h - dr26_2.m = 0
dr26_2.m <= 1
b26 - dr26_3.h - dr26_3.m = 0
dr26_3.m <= 1
b26 - dr26_4.h - dr26_4.m = 0
dr26_4.m <= 1
b26 - dr26_5.h - dr26_5.m = 0
dr26_5.m <= 1
b26 - dr26_6.h - dr26_6.m = 0
dr26_6.m <= 1
b26 - dr26_7.h - dr26_7.m = 0
dr26_7.m <= 1
b26 - dr26_8.h - dr26_8.m = 0
dr26_8.m <= 1
b26 - dr26_9.h - dr26_9.m = 0
dr26_9.m <= 1
b26 - dr26_10.h - dr26_10.m = 0
dr26_10.m <= 1
b26 - dr26_11.h - dr26_11.m = 0
dr26_11.m <= 1
b26 - dr26_12.h - dr26_12.m = 0
dr26_12.m <= 1
b26 - dr26_13.h - dr26_13.m = 0
dr26_13.m <= 1
b26 - dr26_14.h - dr26_14.m = 0
dr26_14.m <= 1
b26 - dr26_15.h - dr26_15.m = 0
dr26_15.m <= 1
b26 - dr26_16.h - dr26_16.m = 0
dr26_16.m <= 1
b26 - dr26_17.h - dr26_17.m = 0
dr26_17.m <= 1
b26 - dr26_18.h - dr26_18.m = 0
dr26_18.m <= 1
b26 - dr26_19.h - dr26_19.m = 0
dr26_19.m <= 1
b27 - dr27_0.h - dr27_0.m = 0
dr27_0.m <= 1
b27 - dr27_1.h - dr27_1.m = 0
dr27_1.m <= 1
b28 - dr28_0.h - dr28_0.m = 0
dr28_0.m <= 1
b28 - dr28_1.h - dr28_1.m = 0
dr28_1.m <= 1
b28 - dr28_2.h - dr28_2.m = 0
dr28_2.m <= 1
b28 - dr28_3.h - dr28_3.m = 0
dr28_3.m <= 1
b28 - dr28_4.h - dr28_4.m = 0
dr28_4.m <= 1
b28 - dr28_5.h - dr28_5.m = 0
dr28_5.m <= 1
b28 - dr28_6.h - dr28_6.m = 0
dr28_6.m <= 1
b28 - dr28_7.h - dr28_7.m = 0
dr28_7.m <= 1
b28 - dr28_8.h - dr28_8.m = 0
dr28_8.m <= 1
b28 - dr28_9.h - dr28_9.m = 0
dr28_9.m <= 1
b29 - dr29_0.h - dr29_0.m = 0
dr29_0.m <= 1
b30 - dr30_0.h - dr30_0.m = 0
dr30_0.m <= 1
b30 - dr30_1.h - dr30_1.m = 0
dr30_1.m <= 1
b30 - dr30_2.h - dr30_2.m = 0
dr30_2.m <= 1
b31 - dr31_0.h - dr31_0.m = 0
dr31_0.m <= 1
b31 - dr31_1.h - dr31_1.m = 0
dr31_1.m <= 1
b31 - dr31_2.h - dr31_2.m = 0
dr31_2.m <= 1
b31 - dr31_3.h - dr31_3.m = 0
dr31_3.m <= 1
b31 - dr31_4.h - dr31_4.m = 0
dr31_4.m <= 1
b31 - dr31_5.h - dr31_5.m = 0
dr31_5.m <= 1
b31 - dr31_6.h - dr31_6.m = 0
dr31_6.m <= 1
b32 - dr32_0.h - dr32_0.m = 0
dr32_0.m <= 1
b33 - dr33_0.h - dr33_0.m = 0
dr33_0.m <= 1


Generals


b0
b1
b2
b3
b4
b5
b6
b7
b8
b9
b9.v0
b9.v1
b10
b11
b11.v0
b11.v1
b12
b13
b14
b15
b16
b17
b17.v0
b17.v1
b18
b19
b20
b20.v0
b20.v1
b21
b22
b22.v0
b22.v1
b23
b24
b24.v0
b24.v1
b25
b25.v0
b25.v1
b26
b27
b28
b28.v0
b28.v1
b29
b30
b30.v0
b30.v1
b31
b32
b32.v0
b32.v1
b33
b34
b34.v0
b34.v1
b35
b36
b37
b38
b39
b40
b40.v0
b40.v1
b41
b42
b43
d0_1
d1_2
d1_4
d2_3
d4_5
d4_7
d5_6
d7_8
d7_43
d8_9
d9_10
d9_42
d10_11
d11_12
d11_36
d12_13
d12_16
d13_14
d14_15
d16_17
d16_24
d17_18
d18_19
d18_20
d19_20
d20_21
d20_22
d21_22
d22_23
d23_17
d23_24
d24_25
d24_34
d25_26
d26_27
d26_28
d27_28
d28_29
d28_30
d29_30
d30_31
d30_32
d31_32
d32_33
d33_25
d33_34
d34_35
d36_37
d36_40
d37_38
d37_40
d38_39
d40_41
d42_11
d43_9
dSta_0
dr17_0.h
dr17_0.m
dr18_0.h
dr18_0.m
dr18_1.h
dr18_1.m
dr18_2.h
dr18_2.m
dr18_3.h
dr18_3.m
dr18_4.h
dr18_4.m
dr18_5.h
dr18_5.m
dr18_6.h
dr18_6.m
dr18_7.h
dr18_7.m
dr18_8.h
dr18_8.m
dr18_9.h
dr18_9.m
dr18_10.h
dr18_10.m
dr18_11.h
dr18_11.m
dr18_12.h
dr18_12.m
dr18_13.h
dr18_13.m
dr18_14.h
dr18_14.m
dr18_15.h
dr18_15.m
dr18_16.h
dr18_16.m
dr18_17.h
dr18_17.m
dr18_18.h
dr18_18.m
dr18_19.h
dr18_19.m
dr18_20.h
dr18_20.m
dr19_0.h
dr19_0.m
dr19_1.h
dr19_1.m
dr20_0.h
dr20_0.m
dr20_1.h
dr20_1.m
dr20_2.h
dr20_2.m
dr20_3.h
dr20_3.m
dr20_4.h
dr20_4.m
dr20_5.h
dr20_5.m
dr20_6.h
dr20_6.m
dr20_7.h
dr20_7.m
dr20_8.h
dr20_8.m
dr21_0.h
dr21_0.m
dr21_1.h
dr21_1.m
dr21_2.h
dr21_2.m
dr21_3.h
dr21_3.m
dr21_4.h
dr21_4.m
dr21_5.h
dr21_5.m
dr21_6.h
dr21_6.m
dr22_0.h
dr22_0.m
dr23_0.h
dr23_0.m
dr25_0.h
dr25_0.m
dr26_0.h
dr26_0.m
dr26_1.h
dr26_1.m
dr26_2.h
dr26_2.m
dr26_3.h
dr26_3.m
dr26_4.h
dr26_4.m
dr26_5.h
dr26_5.m
dr26_6.h
dr26_6.m
dr26_7.h
dr26_7.m
dr26_8.h
dr26_8.m
dr26_9.h
dr26_9.m
dr26_10.h
dr26_10.m
dr26_11.h
dr26_11.m
dr26_12.h
dr26_12.m
dr26_13.h
dr26_13.m
dr26_14.h
dr26_14.m
dr26_15.h
dr26_15.m
dr26_16.h
dr26_16.m
dr26_17.h
dr26_17.m
dr26_18.h
dr26_18.m
dr26_19.h
dr26_19.m
dr27_0.h
dr27_0.m
dr27_1.h
dr27_1.m
dr28_0.h
dr28_0.m
dr28_1.h
dr28_1.m
dr28_2.h
dr28_2.m
dr28_3.h
dr28_3.m
dr28_4.h
dr28_4.m
dr28_5.h
dr28_5.m
dr28_6.h
dr28_6.m
dr28_7.h
dr28_7.m
dr28_8.h
dr28_8.m
dr28_9.h
dr28_9.m
dr29_0.h
dr29_0.m
dr30_0.h
dr30_0.m
dr30_1.h
dr30_1.m
dr30_2.h
dr30_2.m
dr31_0.h
dr31_0.m
dr31_1.h
dr31_1.m
dr31_2.h
dr31_2.m
dr31_3.h
dr31_3.m
dr31_4.h
dr31_4.m
dr31_5.h
dr31_5.m
dr31_6.h
dr31_6.m
dr32_0.h
dr32_0.m
dr33_0.h
dr33_0.m
x18_0.h
x18_0.m
x18_1.h
x18_1.m
x18_2.h
x18_2.m
x18_3.h
x18_3.m
x18_4.h
x18_4.m
x18_5.h
x18_5.m
x18_6.h
x18_6.m
x19_0.h
x19_0.m
x20_0.h
x20_0.m
x20_1.h
x20_1.m
x20_2.h
x20_2.m
x20_3.h
x20_3.m
x21_0.h
x21_0.m
x21_1.h
x21_1.m
x22_0.h
x22_0.m
x23_0.h
x23_0.m
x26_0.h
x26_0.m
x26_1.h
x26_1.m
x26_2.h
x26_2.m
x26_3.h
x26_3.m
x26_4.h
x26_4.m
x26_5.h
x26_5.m
x26_6.h
x26_6.m
x27_0.h
x27_0.m
x28_0.h
x28_0.m
x28_1.h
x28_1.m
x28_2.h
x28_2.m
x28_3.h
x28_3.m
x28_4.h
x28_4.m
x30_0.h
x30_0.m
x30_1.h
x30_1.m
x31_0.h
x31_0.m
x31_1.h
x31_1.m
x32_0.h
x32_0.m
x33_0.h
x33_0.m


End
\ total cons: 403    total vars: 370
